Maximize
 obj: + x - 2 y
Subject To
 c1: + 5 x + 3 y >= 30
 c2: + 1 x - 1 y <= 3
 c3: - 3 x + 5 y <= 15
Bounds
 0 <= x
 0 <= y
End

//прямое произведение
//прямое произведение столбцов
//Матрица А без индексов - блочно диагональная Матрица все регионы
//Aij - подматрица для конкретного региона